(set-logic QF_S)
(declare-fun var0 () String)
(declare-fun var1 () Int)
(declare-fun var2 () Bool)
(declare-fun var3 () String)
(declare-fun var4 () Int)
(declare-fun var5 () Bool)
(declare-fun var6 () String)
(declare-fun var7 () Int)
(declare-fun var8 () Bool)
(assert (str.in.re var0 re.allchar))
(assert (< var4 var1))
(assert (str.contains (str.substr (str.substr var6 var7 6) (str.indexof "KP|RjH\\09\\" var3 var4) (str.indexof "'*;TNpCbTA" var0 var1)) (str.substr (str.replace var3 "P)n&e`$a7L" var0) (str.len var6) (str.indexof var0 var6 var7))))
(assert (>= (str.indexof (str.replace var0 var3 var0) (str.substr var6 var7 4) (str.len var3)) (str.indexof var0 var0 10)))
(check-sat)